
  21    0


   0  10 2 3 5 6 7 16 17 18 19 20 
   3   4 15 11 10 4 
   5   3 14 11 9 
   1   2 9 8 
   4   2 13 10 
  10   2 12 8 
   9   2 9 8 
   5   1 21
   3   1 21
   7   1 21
   8   1 21
   2   1 21
   4   1 21
   9   1 21
  10   1 21
   6   1 21
   9   1 21
   4   1 21
   7   1 21
   6   1 21
   0   0 
